variable        T equal 310
#Basic Parameters
units           lj     
dimension       3
boundary        p p p
atom_style      full
neighbor        0.5   bin
read_data data.txt
mass   1	1.1
mass   2   2.2
group platelet type 1
group flow     type 2
velocity flow create ${T} 1233446 dist gaussian
pair_style hybrid/overlay lj/cut 1.0 dpd 1.0 1.5 4232421 dpd/tstat 1.0 1.0 1.5 342333
##particle-particle in platelet
pair_coeff 1 1 lj/cut    0.025  0.2
##dpd particle in flow
pair_coeff 2 2 dpd 25 90.0
pair_coeff 1 2 dpd/tstat 90.0
##Ref https://journals.plos.org/ploscompbiol/article?id=10.1371/journal.pcbi.1005173
##Ref https://www.ncbi.nlm.nih.gov/pmc/articles/PMC4267858/pdf/nihms-625861.pdf
##dpd need ghost velocity
comm_modify vel yes
timestep 0.0001
fix 1 platelet rigid/nve molecule
fix 2 flow nve
dump            1 all xyz 5000 stable.xyz
thermo          1000
thermo_style    custom step temp press density vol
thermo_modify   flush yes
run 400000

